c	Created in graph generator tool by Shahar Bardugo & Dorin Matzrafi
c
p	sp 5 20
c	graph contains 5 nodes and 20 arcs
c
a	1	2	489
a	2	1	924
a	1	3	607
a	1	4	679
a	1	5	477
a	2	3	905
a	2	4	89
a	2	5	905
a	3	1	390
a	3	2	323
a	3	4	64
a	3	5	522
a	4	2	93
a	4	3	371
a	4	5	164
a	5	4	843
a	4	1	413
a	5	1	477
a	5	2	576
a	5	3	531
